100
200
138
136
136
127
127
127
125
123
123
122
121
120
116
115
115
112
111
110
104
104
103
102
102
101
101
101
101
98
96
96
93
93
92
92
92
91
90
89
88
88
86
86
86
83
82
81
81
80
79
78
78
75
75
73
73
72
71
71
69
68
64
63
60
59
58
57
57
57
55
55
55
54
54
54
54
53
53
50
47
47
47
47
44
42
40
39
39
34
33
33
29
28
28
27
26
25
24
21
21
20
